MRO
1.000
 28.070423126220710      0.000 0.000
 0.000   28.265785217285160      0.000
 0.000 0.000   28.260745048522949     
      195         584
Selective Dynamics
Direct
   3.5709314346313494        3.5312128067016602        13.099888682365410      T T T
   18.510447978973389        23.423539161682129        4.6551942825317294      T T T
   2.4174270629882795        8.7361006736755407        3.7958927154540998      T T T
   12.795402646064758        1.7798595428466797        11.408399343490601      T T T
   17.951821088790901        9.4704337120056206        5.9417886734008807      T T T
   20.999629497528080        11.002994298934940        21.220802783966061      T T T
   22.935853958129890        11.310336828231812        13.533047735691071      T T T
   5.7299194335937500        16.888313055038452        8.5355653762817312      T T T
   2.1006612777709996        23.458514213562012        8.6669831275939906      T T T
   2.4919538497924787        25.065534591674812       0.89473533630370916      T T T
   5.3673782348632795        27.640792846679691        27.268549919128411      T T T
   22.351849555969238        7.3905119895935103        4.5484771728515607      T T T
  0.30125999450683949        20.015573024749759        23.686403274536129      T T T
   14.426064521074299        6.9894080162048402        9.1595835685729909      T T T
   7.8212513923644993        18.830153942108161        16.210227727890011      T T T
   23.998630523681641        4.8387908935546911        8.6451511383056605      T T T
   6.5556249618530291        7.6579051017761204        6.1323075294494602      T T T
   17.786274671554569        4.1664867401123100        4.8114242553710902      T T T
   27.117478370666511        11.522688150405891        13.926150828599930      T T T
   27.277417182922370        6.2358179092407209        15.833156347274780      T T T
   23.479164123535160       0.95654106140137074        17.361561298370361      T T T
   27.596675872802741        24.489678382873542        22.005724430084221      T T T
   9.5948386192321795        28.265785217285160        18.188798427581780      T T T
   19.037562370300300        1.3659000396728498        19.673746585845940      T T T
   26.473862648010261        12.429209351539610        4.1748981475830007      T T T
   17.172000408172607        9.8664188385009801        2.9747219085693306      T T T
   14.179770916700368        24.289322853088379        12.517086744308470      T T T
   23.658239364624031        26.564409255981452        27.713519096374512      T T T
   25.338766098022461        26.595710754394531        13.330398917198179      T T T
   6.0162134170532298        8.6027870178222710       0.59931373596191051      T T T
   21.809913158416748        27.740720748901371        12.044294834136959      T T T
   19.472890377044678        23.038128852844238        14.605354338884350      T T T
   12.404864072799690        21.571893692016602        14.724348783493040      T T T
   14.387958794832230        22.073368072509773        4.6270618438720703      T T T
   8.8177795410156286        13.551727592945101        19.231119155883789      T T T
   2.7597351074218786        1.1395959854126012        4.0264701843261701      T T T
   20.174222469329841        6.1004447937011701        11.752364397048950      T T T
   27.853081703186039        8.5440206527709996        17.358659029006951      T T T
   25.123684883117679        26.902822494506843        21.254868507385250      T T T
   7.1091208457946795        15.853428363800051        20.204799175262451      T T T
   5.8485689163207990        4.9367294311523402        2.6815910339355398      T T T
   18.040391921997070        27.658658027648933        5.2426385879516602      T T T
  0.16772556304931996        13.628561556339271        2.9100780487060494      T T T
   12.965430617332458        22.877676010131843        22.425477981567379      T T T
   2.4909687042236399        18.402359485626221        11.826460123062130      T T T
   10.231784820556639        26.513858795166023        4.2642583847045898      T T T
   7.7577276229858390        1.1531648635864311        12.244258761405939      T T T
   13.952727705240250        7.7466583251953107        3.2615957260131800      T T T
   23.199407577514648        3.6940536499023402        25.832703590393059      T T T
   24.745031356811531        1.7569160461425799        14.947817444801331      T T T
   16.276991605758671        2.6091308593750000        8.6786398887634206      T T T
   14.055786687880760        28.210074424743652        9.5894451141357404      T T T
   9.6020803451538086        12.030734539031981        27.981643676757812      T T T
   23.806141853332520        4.0130720138549805        13.478321969509119      T T T
   27.753305435180671        7.7737717628479004        20.251925468444821      T T T
   3.7949333190917987        8.7084088325500506        8.1729383468627894      T T T
   23.639806747436531        16.933068513870239        1.4534511566162092      T T T
   7.8097929954528791        25.560592651367191        2.9098081588745099      T T T
   26.450525283813480        19.174290180206299        9.4462537765502894      T T T
   12.912538290023809        1.5732784271240199       0.24406623840332031      T T T
  0.74784183502197976        2.4653224945068413        15.595457792282101      T T T
   24.068531990051270        13.253059744834900        8.8840136528015101      T T T
   19.531846046447761        15.352236747741701        7.6158099174499503      T T T
   26.775343894958500        22.035503387451172        6.0576324462890607      T T T
   26.209731101989750        6.6578149795532209        12.818974614143370      T T T
   15.811838865280150        19.437423706054691        1.0179138183593697      T T T
   27.106730461120609        21.753811836242679        10.674149990081780      T T T
   14.185269489884380        3.7091350555419904        16.867719888687130      T T T
   6.3591451644897496        10.348587751388550        24.751324653625481      T T T
   27.249958992004402        7.7237663269043004        7.2884011268615696      T T T
   26.981076240539551        1.2625198364257812        27.756476402282708      T T T
   9.8308863639831596        3.6965370178220880E-002   27.770783424377441      T T T
   3.0292272567748988        27.662357330322273        25.733344078063958      T T T
   21.431318759918220        15.789365768432621        18.683846950530999      T T T
   14.600537061691290        6.8035144805908203        22.377092361450188      T T T
   8.4352226257324183        25.580297470092770        22.754906654357910      T T T
   12.248033881187439        4.8335533142089897        7.5038099288940403      T T T
   1.5704212188720685        8.5025997161865199        26.988322257995598      T T T
   27.734652519226081        9.6573438644409215        25.426680564880371      T T T
   27.040931701660160        14.359674066305161        16.645352840423580      T T T
   10.861543893814089        9.5065207481384313        22.904634475708001      T T T
   22.142156600952148        24.031408309936520        26.612118721008301      T T T
   27.548585891723640        14.934050738811491        10.834229946136471      T T T
   15.769512534141539        12.515033125877380        3.5950813293456996      T T T
   21.784667491912838        13.405508518219001        16.503579139709469      T T T
   14.413065969943998        19.535999298095700        10.699318885803219      T T T
   25.394082069396980        20.436773777008060        19.029395103454590      T T T
   23.493410110473640        5.2969837188720703        2.6104764938354492      T T T
   9.5762100219726598        19.307322025299072        10.765468597412109      T T T
   25.515472412109379        12.888344645500180        18.501003742218010      T T T
   10.314090967178348        21.891679286956791        6.9036002159118599      T T T
   16.865444421768188        21.670412540435791        15.975740075111389      T T T
   19.403664588928230        6.4422483444213903        9.0502448081970197      T T T
   13.097022652626039        25.860507965087891        17.126056194305420      T T T
   23.842833518981941        10.724304437637331        21.208163738250729      T T T
   8.2460451126098704        17.317691802978519        22.174776077270501      T T T
   21.092075824737549        11.249968051910400        1.4977912902831996      T T T
   2.0664691925048899        22.797235488891602        19.714693546295159      T T T
   7.4827756881713894        8.1224255561828613        26.499158859252930      T T T
   23.387381553649899        10.797105312347410        17.612071037292480      T T T
   22.255083084106449        6.5412750244140607        17.347575902938839      T T T
   15.322817802429199        1.7498893737793004        23.118813514709473      T T T
   2.1944704055786186        1.2325496673584002        7.9512090682983398      T T T
   18.994563579559330        7.0215020179748509        2.3382329940795898      T T T
   6.9413175582885795        23.710024833679199        19.513483524322510      T T T
   20.021343708038330        0.0000000000000000        15.389014720916741      T T T
   10.809742450714110        5.7973175048828107        19.862149238586419      T T T
   10.684015750885010        11.742544412612920        5.8062639236450195      T T T
   16.978113889694221        3.8673439025878906        27.048129081726071      T T T
   2.4547557830810600        7.8504562377929705        13.751898378133770      T T T
   4.5389575958251989        11.200864791870121        19.527554035186760      T T T
   25.538008689880371        8.0997953414916992        24.424152374267571      T T T
   13.826237022876740        25.949518203735352        7.1419987678527797      T T T
   4.9284791946411186        5.2459812164306712        14.913746893405911      T T T
   14.500606596469879        8.9634952545166016        27.364295005798340      T T T
   10.101313352584839        6.2761845588684109        1.3838968276977504      T T T
   24.623827934265137        16.637629985809330        5.8243303298950195      T T T
   12.552548170089720        4.5706977844238299        12.550419926643370      T T T
   10.098184108734129        2.5423107147216797        15.643953680992119      T T T
   25.545057296752930        13.342887997627260        24.362727165222161      T T T
   10.808823823928840        24.963175773620613        26.753534317016602      T T T
   19.285228252410889        26.808528900146491        20.346035003662109      T T T
   6.7958922386169496        26.386702537536621        18.244357109069821      T T T
   17.071117639541630        27.221900939941410        12.643249869346620      T T T
   25.247254371643070        19.332196235656742        14.033472463488581      T T T
   6.0688533782958993        22.690677642822273        1.7202196121215803      T T T
   9.7701549530029297        10.719195365905760        16.660970449447632      T T T
   26.630109786987312        11.993111371994020        1.1993427276611293      T T T
   1.7123327255248988       0.64293003082276101        10.841033458709710      T T T
   16.637170314788818        18.873029232025150        20.313570499420159      T T T
   12.660768985748289        16.513192176818851        13.092434763908379      T T T
   20.882623195648200        16.790750026702881        12.578116774559021      T T T
   16.980916976928711        14.597864061594011        11.261780977249140      T T T
   15.065166115760809        23.453572273254402        18.549900531768799      T T T
   18.139438152313229       0.54281997680664062        9.5486516952514613      T T T
   5.6279497146606499        1.4890651702880913        14.205589815974230      T T T
   18.222865581512451        4.7838439941406303        7.4428162574768004      T T T
   24.791903495788581        24.551607131958011        7.4051480293273899      T T T
   3.6756000518798899        22.624704360961921        16.145164012908928      T T T
   18.917431354522709        5.1672277450561506        16.606885910034180      T T T
   16.582610368728638        24.175875663757331        24.645529747009270      T T T
   19.103947162628181        20.681472301483161        1.4752149581909109      T T T
   15.445888161659239        17.144332647323612        9.2718720436096191      T T T
   19.042037487030029        16.176110744476322        22.515055656433098      T T T
   27.651963233947761        14.618053406476980        22.262536048889160      T T T
   24.688045501708991        1.6508655548095703        5.0715551376342702      T T T
   8.1690669059753382        5.8429651260376012        14.405543863773341      T T T
   21.099012374877930        23.811259269714363        5.6763763427734304      T T T
   6.3001470565795890        23.404689788818359        27.294323921203610      T T T
   4.1092042922973686        15.755049586296080        16.944998502731320      T T T
   8.2367377281189000        21.039054393768311        2.8222484588622994      T T T
   23.035829544067390        18.354623794555671        23.692533493041992      T T T
  0.60430145263671875        15.028423011302950        7.7429466247558603      T T T
   24.604294776916511        21.992355346679691        23.066742897033691      T T T
  0.98066997528075994        18.761201381683350        15.371469497680661      T T T
   4.5873994827270490        13.201939821243290        23.624789237976071      T T T
   15.144364714622499        26.964226722717292        4.7259731292724592      T T T
   15.757258176803589        1.9501724243164098        2.0042390823364205      T T T
   6.8117709159851092        24.285867691040039        10.329041481018059      T T T
   16.411841392517090        4.1355810165405309        24.363199234008789      T T T
   7.0470032691955593        17.407592773437500        27.759354591369629      T T T
   21.816830635070801        20.882760047912601        7.7558355331420898      T T T
   3.2159862518310600        13.610073149204261        12.728378772735590      T T T
   19.471548557281501        5.3957347869873100        22.284771919250481      T T T
   22.335564613342289        6.5001087188720703        21.763451576232910      T T T
   22.576589584350589        15.257963776588440        24.633960723876950      T T T
   10.075049638748169        14.622608721256260        10.074947834014889      T T T
   3.7698450088500994        25.002935409545898        23.383661270141602      T T T
   3.9045448303222692        7.5514087677002006        23.178948402404778      T T T
   17.792291879653931        24.603168487548828        19.883642673492432      T T T
   4.9657726287841797        13.378497362136841       0.12450313568115057      T T T
   1.5916442871093786        12.064884662628181        8.7047567367553711      T T T
   26.118969917297370        23.761716842651371        1.3425893783569300      T T T
   2.5760469436645490        23.536702156066902        12.909787178039551      T T T
   7.9561052322387695        15.897930622100830        17.647183656692501      T T T
   12.593961119651800        4.8280982971191406        26.377898216247551      T T T
   1.2607679367065501        15.284344077110291        20.245633602142330      T T T
   8.6439104080200195        16.928590774536129        5.5754127502441406      T T T
   9.9593272209167480        9.1821117401123118        10.706963300704949      T T T
   3.0015649795532298        5.0579051971435600        17.941928863525391      T T T
   19.245986461639411        27.275392532348633        25.513829231262200      T T T
   5.5410766601562500        8.9589533805847203        17.540171384811401      T T T
   13.967743739485739        26.577320098876953        21.646728992462151      T T T
   25.439646720886230        1.2368335723877006        1.8630475997924805      T T T
   22.077981948852539        12.338068962097172        11.011280059814450      T T T
   20.979901790618900        1.2452068328857404       0.72218990325927024      T T T
   19.919780254364021        20.996440410614010        20.298637390136719      T T T
   11.435012102127079        23.131145477294922        2.0461063385009695      T T T
   2.8726606369018590        18.335999488830570        18.807022571563721      T T T
   4.9543094635009801        20.058317661285400        11.628006696701050      T T T
   13.877984344959259        14.880259752273561        26.587959289550781      T T T
   24.114564895629890        9.1242728233337402        4.6793937683100140E-002 T T T
   8.5225625038146990        3.9073925018310600        26.828416824340820      T T T
   18.183301925659180        21.263078689575202        25.212044715881341      T T T
   20.240748405456550        18.004069089889530        4.5386552810668892      T T T
   4.0456333160400391        6.1286191940307599       0.36076068878172940      T T T
   11.616492986679079        23.221084594726562        17.118512630462639      T T T
   10.560023307800300        11.067488193511961        19.625000000000000      T T T
   22.713970184326172        12.455269694328310        23.496108055114739      T T T
   26.203446388244629        3.0409412384033203        25.354496955871582      T T T
   28.000111579895020        12.651638388633730        20.040106773376461      T T T
   18.971372127532959        14.126354184001691        17.446363687515259      T T T
   24.384082794189460        6.4715142250061009        15.134536623954769      T T T
   4.0717344284057599        15.860834002494810        20.003564834594719      T T T
   16.074224948883060        6.2154140472412109        16.438417196273800      T T T
   8.6750044822692889        3.6735162734985405        2.7695379257202095      T T T
   23.521772384643562        4.5336294174194300        5.5638027191162092      T T T
   26.314008712768562        27.661206245422360        4.0350732803344709      T T T
   25.939654350280762        17.333899974823002        11.784344196319580      T T T
   16.998790740966800        6.1621022224426305        20.464096546173089      T T T
   22.139374732971191        7.0395779609680202        9.4055757522583008      T T T
   19.271886348724369        24.110417366027832        25.869132995605469      T T T
   24.866051673889160        23.855062484741211        20.692495346069329      T T T
   16.779821634292610        21.384899139404300        6.4093265533447203      T T T
   25.133280754089359        3.7217903137207013       0.11896610260009055      T T T
   21.679914951324470        4.2366256713867205       0.17923831939697088      T T T
   10.014622688293461        3.2324562072753906        6.2095327377319300      T T T
   13.499258995056149        24.683758735656738       0.42346763610838956      T T T
   23.629164695739750        21.376936912536621        25.791839599609368      T T T
   24.727317810058601        12.559902787208561        15.613555788993830      T T T
   2.6021833419799787        15.114044129848480        4.2606401443481392      T T T
   12.786397933959959        25.521676063537601        10.012739658355709      T T T
   14.586156666278839        23.659327507019043        15.533688545227051      T T T
   19.841605186462399        26.301818847656250        7.1779184341430602      T T T
   26.236956596374512        13.908453598618511        27.262461662292480      T T T
   20.356007575988770        17.359573125839230        24.973017692565911      T T T
   11.082142353057860       0.37901878356934127        9.2239956855773890      T T T
   8.1336169242858887        6.7483372688293501        3.5772581100463796      T T T
   0.0000000000000000        7.5719671249389702        23.148692131042480      T T T
   2.1256761550903285        9.7747116088867205        24.243264198303223      T T T
   26.276268005371101        10.337197065353390        6.2655439376831001      T T T
   1.1772966384887695        16.264572858810432        17.282472372055050      T T T
   15.033058404922489        10.055443286895750        4.9711027145385707      T T T
   14.335270047187809        18.951798439025879        3.8775062561035103      T T T
   9.6625132560729980        12.497862696647651        2.8797225952148402      T T T
   17.246484994888309        1.0862073898315412        14.878231704235070      T T T
   1.0198984146118200        7.1075201034545907        1.4806747436523402      T T T
   15.588380336761480        11.773390293121341        11.028516054153441      T T T
   18.869947433471680        12.447296142578130        27.632948875427239      T T T
   14.433838754892349        10.525064945220951        1.6993293762206996      T T T
   15.499421238899229        21.545894622802741        23.811116218566887      T T T
   20.873453617095947        20.554759502410889        23.871032714843750      T T T
   1.3848800659179688        9.6140813827514702        6.6760087013244602      T T T
   8.2491579055786204        8.1372895240783709        16.353063821792599      T T T
   7.8386883735656792        27.153461456298828        9.8617572784423793      T T T
  0.15971469879150924        10.503960847854621        3.0128898620605398      T T T
   2.5265760421753001        13.415486931800841        18.116373777389519      T T T
   15.460622906684879        17.158215999603271        12.290180683135979      T T T
   7.4625868797302291        6.0009756088256800       0.34984779357909979      T T T
   6.0840415954589897        26.922533035278320        12.941328406333920      T T T
   3.9575767517089897        11.809297084808350        26.113982200622551      T T T
   8.8245964050293004        17.144013166427612        8.7980766296386701      T T T
   3.0060663223266602        20.623208522796631        13.901274159550660      T T T
   3.6946840286254901        14.800301194190981        7.4461035728454599      T T T
   3.6093511581420898        23.605792045593262        3.4021778106689400      T T T
   12.626701593399050        27.402780532836921        26.813651084899902      T T T
   5.5664958953857386        2.0757503509521502        3.3926486968994105      T T T
   18.098484039306641        14.059055164456371        13.962517082691191      T T T
   19.949407577514648        22.832377433776863        11.554228067398070      T T T
   15.567330241203310        15.676652073860170        17.208792924880981      T T T
   9.0688962936401403        9.0653915405273402       0.72339630126952947      T T T
   16.903971433639530        21.311683177948002        3.2259016036987305      T T T
  0.11572170257568892        1.4761724472045898        5.7107925415039009      T T T
   17.719314336776741        18.276195526123050        2.9970502853393501      T T T
   10.679477453231810       0.60317325592041016        2.2651414871215803      T T T
   23.749768257141120        6.6792078018188503        26.522625923156731      T T T
   17.644165754318237        24.322160720825202        16.862875461578369      T T T
   22.451872825622559        8.6677908897399902        19.478277683258050      T T T
  0.51908302307128906        17.441267728805542        9.6860637664794904      T T T
   26.690710067749031        15.632899165153500        19.423141002655029      T T T
   24.006758689880371        26.384407997131351        18.496708869934082      T T T
   7.4357242584228489        13.102305889129640        24.738260269165039      T T T
   17.137469291687008        27.451539039611820        2.4079694747924805      T T T
   10.858092069625860        3.6349754333496112       0.34252738952636008      T T T
   3.3635368347167987        16.394995212554932        14.093721821904181      T T T
   5.2369832992553693        20.059697151184082        2.9504680633544904      T T T
  0.16192913055419922        12.540694713592531        24.381221771240231      T T T
   11.430080175399780        12.027361631393431        9.6114869117736799      T T T
  0.75578975677489879        11.488133192062381        27.614329338073730      T T T
   5.2504091262817401        7.7926826477050808        3.2561616897583008      T T T
   21.042131423950199        19.472927093505859        10.738520145416260      T T T
  0.39368152618407848        20.868184566497803        8.2010326385498011      T T T
   20.911791801452640        6.9198141098022505        24.527751922607422      T T T
   25.975914001464851        17.850684165954590        3.2134160995483398      T T T
   14.900101721286779        19.439207077026371        26.399158477783200      T T T
   15.952270984649660        1.6530075073242205        4.9072313308715803      T T T
   22.220039367675781        23.705539703369141        8.6302733421325613      T T T
   1.3727169036865288        26.719804763793952        3.0694351196289009      T T T
   22.492845535278320        22.293291091918952        14.470780849456780      T T T
   23.800255775451660        1.1612720489502006        27.574100494384759      T T T
   2.0419292449951190        20.109598159790039        21.056762218475342      T T T
   19.221220016479489        10.614210605621341        23.753029823303223      T T T
   4.8594102859497088        1.5733013153076207        6.5546588897704998      T T T
   9.3357105255126989        10.194953918457031        25.442482948303223      T T T
   3.8204984664916992        24.998610496521000        26.491972923278809      T T T
   20.968437194824219        1.4741659164428711        25.944191932678223      T T T
   1.4890089035034197        17.596378087997440        6.3399443626403800      T T T
  0.36450576782226918        24.223908424377441        11.133307933807369      T T T
   11.947960853576660        20.675165176391602        24.047900199890130      T T T
   18.846181392669678        6.2709784507751509        27.605991363525391      T T T
   11.601866245269779        22.121031761169430        27.357439994812012      T T T
   11.467298746109009        6.7722382545471209        9.6462779045104909      T T T
   7.4958181381225595        1.1683635711669904        26.100992202758789      T T T
   23.633019447326660        22.180349349975593        5.7063188552856392      T T T
   17.708537578582771        4.2519731521606499        1.7736253738403303      T T T
   26.669454574584961        3.9880256652832013        14.159052584320300      T T T
   2.7223834991455096        9.2294249534606898        10.978469848632809      T T T
   10.822187662124639        6.4538207054138201        22.921537399291992      T T T
   16.976211071014408        11.202520370483400        17.074100017547600      T T T
   18.897201061248779        3.4994716644287109        10.137847900390620      T T T
   12.475910902023319        28.124427795410160        5.4419250488281197      T T T
   2.3196649551391602        3.8209066390991211        6.4283246994018501      T T T
   5.8760385513305700        26.089619636535652        21.203070163726800      T T T
   26.167864799499512        28.043430328369141        16.554468393325799      T T T
   2.4090137481689489        5.9777641296386701        25.337451934814450      T T T
   27.460558891296387        6.6796627044677708        26.300606727600091      T T T
   27.012692451477051        12.856791377067571        8.6450743675231898      T T T
   9.3559775352478098        9.5819401741027797        7.6753077507018999      T T T
   13.431935310363770        9.2930846214294398        14.018496677279471      T T T
   11.874269723892208        10.207130432128910        27.430472373962402      T T T
   10.535551786422729        8.5639953613281250E-002   12.686104893684380      T T T
   4.9442577362060600        13.520805060863500        15.137964844703671      T T T
   12.437623858451849        9.6682024002075195        7.1729269027709899      T T T
   27.240170478820801        15.246085882186890        5.1728315353393501      T T T
   10.298154354095459        14.628010630607610        6.8261065483093200      T T T
   6.6235694885253888        8.9601778984069806        9.0487775802612305      T T T
   21.335489749908447        12.693733692169191        4.1689748764038104      T T T
   2.8525514602661186        4.1045589447021502        3.0437231063842702      T T T
   13.695275962352760        7.1829719543457005        6.2380318641662598      T T T
   22.887948989868171        2.4311485290527397        2.7676954269409109      T T T
   17.740607500076301        3.0838813781738299        21.855483055114739      T T T
   12.818049788475040        11.796289682388311        23.131340980529778      T T T
   15.259474396705629        6.1966729164123509        26.226134300231930      T T T
   25.152240753173828        24.206003189086921        26.806393623352051      T T T
   3.5383996963500994       0.45632743835449041        1.0887041091918892      T T T
   7.1998205184936497        3.3916854858398402        16.009110808372490      T T T
   24.177326202392578        7.4415574073791504        7.0674881935119602      T T T
   19.111785411834720        15.319969058036811        4.5771827697753906      T T T
   13.035177290439609        9.3932056427002006        10.549209594726559      T T T
   26.170708656311039        17.441334724426270        28.068710327148430      T T T
   1.8006610870361399        3.1648683547973597        22.410270690917969      T T T
   4.6846551895141602        22.832293510437012        21.396299362182610      T T T
   19.243382930755619        22.808594703674320        7.8486180305480904      T T T
   16.990030765533451        7.4639220237731907        7.7305178642272905      T T T
   6.2898468971252495        1.4416847229003906        22.575011253356930      T T T
   8.3368749618530291        19.946051597595222        5.6739778518676705      T T T
   2.6881246566772496       0.84832191467284979        13.912888973951340      T T T
   25.332979202270508        24.293103218078610        10.589653730392449      T T T
   5.4446916580200195        22.964694976806641        12.796685099601740      T T T
   15.886686801910399        24.393989562988281        3.2637758255004794      T T T