 MRO_AlSm
 1.0000000
 28.284271240234379      0.0000 0.0000
 0.0000   28.284271240234379      0.0000
 0.0000 0.0000   28.284271240234379     
 195         584
Selective dynamics
Direct
  -10.453467369079590       -10.600188255310060       -1.0311528444290201      T T T 
   4.4860491752624503        9.2921380996704102       -9.4758472442627006      T T T 
  -11.606971740722660       -5.3953003883361799       -10.335148811340330      T T T 
  -1.2289961576461801       -12.351541519165041       -2.7226421833038299      T T T 
   3.9274222850799601       -4.6609673500061000       -8.1892528533935494      T T T 
   6.9752306938171396       -3.1284067630767800        7.0897612571716300      T T T 
   8.9114551544189506       -2.8210642337799099      -0.59799379110336004      T T T 
  -8.2944793701171893        2.7569119930267298       -5.5954761505126998      T T T 
  -11.923737525939940        9.3271131515502894       -5.4640583992004403      T T T 
  -11.532444953918461        10.934133529663089       -13.236306190490721      T T T 
  -8.6570205688476598        13.509391784667971        13.137508392333981      T T T 
   8.3274507522583008       -6.7408890724182102       -9.5825643539428693      T T T 
  -13.723138809204100        5.8841719627380398        9.5553617477416992      T T T 
  0.40166571736335999       -7.1419930458068803       -4.9714579582214400      T T T 
  -6.2031474113464400        4.6987528800964400        2.0791862010955802      T T T 
   9.9742317199706996       -9.2926101684570295       -5.4858903884887704      T T T 
  -7.4687738418579102       -6.4734959602356001       -7.9987339973449698      T T T 
   3.7618758678436302       -9.9649143218994105       -9.3196172714233398      T T T 
   13.093079566955570       -2.6087129116058301      -0.20489069819450001      T T T 
   13.253018379211429       -7.8955831527709996        1.7021148204803500      T T T 
   9.4547653198242205       -13.174860000610350        3.2305197715759300      T T T 
   13.572277069091800        10.358277320861820        7.8746829032897896      T T T 
  -4.4295601844787598        14.134384155273439        4.0577569007873500      T T T 
   5.0131635665893599       -12.765501022338871        5.5427050590515101      T T T 
   12.449463844299320       -1.7021917104721100       -9.9561433792114293      T T T 
   3.1476016044616699       -4.2649822235107404       -11.156319618225099      T T T 
  0.15537211298942999        10.157921791076660       -1.6139547824859599      T T T 
   9.6338405609130895        12.433008193969730        13.582477569580080      T T T 
   11.314367294311520        12.464309692382811      -0.80064260959625000      T T T 
  -8.0081853866577095       -5.5286140441894496       -13.531727790832520      T T T 
   7.7855143547058097        13.609319686889650       -2.0867466926574698      T T T 
   5.4484915733337402        8.9067277908325195       0.47431281208991999      T T T 
  -1.6195347309112500        7.4404926300048801       0.59330725669860995      T T T 
  0.36355999112129000        7.9419670104980504       -9.5039796829223597      T T T 
  -5.2066192626953098      -0.57967346906661998        5.1000776290893599      T T T 
  -11.264663696289061       -12.991805076599119       -10.104571342468260      T T T 
   6.1498236656189000       -8.0309562683105504       -2.3786771297454798      T T T 
   13.828682899475099       -5.5873804092407200        3.2276175022125200      T T T 
   11.099286079406740        12.771421432495121        7.1238269805908203      T T T 
  -6.9152779579162598        1.7220273017883301        6.0737576484680202      T T T 
  -8.1758298873901403       -9.1946716308593803       -11.449450492858890      T T T 
   4.0159931182861301        13.527256965637211       -8.8884029388427699      T T T 
  -13.856673240661619      -0.50283950567244995       -11.220963478088381      T T T 
  -1.0589681863784799        8.7462749481201207        8.2944364547729492      T T T 
  -11.533430099487299        4.2709584236145002       -2.3045814037322998      T T T 
  -3.7926139831543000        12.382457733154300       -9.8667831420898402      T T T 
  -6.2666711807251003       -12.978236198425289       -1.8867827653884901      T T T 
  -7.1671098470690003E-002  -6.3847427368164098       -10.869445800781250      T T T 
   9.1750087738037092       -10.437347412109380        11.701662063598629      T T T 
   10.720632553100589       -12.374485015869141       0.81677591800689997      T T T 
   2.2525928020477299       -11.522270202636721       -5.4524016380310103      T T T 
   3.1387884169820003E-002   14.078673362731930       -4.5415964126586896      T T T 
  -4.4223184585571298       -2.1006665229797399        13.850602149963381      T T T 
   9.7817430496215803       -10.118329048156740      -0.65271955728530995      T T T 
   13.728906631469730       -6.3576292991638201        6.1208839416503897      T T T 
  -10.229465484619141       -5.4229922294616699       -5.9581031799316397      T T T 
   9.6154079437255895        2.8016674518585201       -12.677590370178221      T T T 
  -6.2146058082580602        11.429191589355471       -11.221233367919920      T T T 
   12.426126480102541        5.0428891181945801       -4.6847877502441397      T T T 
  -1.1118605136871300       -12.558122634887701       -13.886975288391110      T T T 
  -13.276556968688960       -11.666078567504879        1.4644162654876700      T T T 
   10.044133186340330      -0.87834131717681996       -5.2470278739929199      T T T 
   5.5074472427368200        1.2208356857299800       -6.5152316093444798      T T T 
   12.750945091247560        7.9041023254394496       -8.0734090805053693      T T T 
   12.185332298278810       -7.4735860824584996       -1.3120669126510600      T T T 
   1.7874400615692101        5.3060226440429696       -13.113127708435060      T T T 
   13.082331657409670        7.6224107742309597       -3.4568915367126500      T T T 
  0.16087068617344000       -10.422266006469730        2.7366783618927002      T T T 
  -7.6652536392211896       -3.7828133106231698        10.620283126831049      T T T 
   13.225560188293461       -6.4076347351074201       -6.8426403999328604      T T T 
   12.956677436828610       -12.868881225585939        13.625434875488279      T T T 
  -4.1935124397277797       -14.094435691833500        13.639741897583010      T T T 
  -10.995171546936040        13.530956268310550        11.602302551269529      T T T 
   7.4069199562072798        1.6579647064209000        4.5528054237365696      T T T 
  0.57613825798035001       -7.3278865814209002        8.2460508346557599      T T T 
  -5.5891761779785201        11.448896408081049        8.6238651275634801      T T T 
  -1.7763649225235001       -9.2978477478027308       -6.6272315979003897      T T T 
  -12.453977584838871       -5.6288013458251998        12.857280731201170      T T T 
   13.710253715515140       -4.4740571975707999        11.295639038085939      T T T 
   13.016532897949221       0.22827300429344000        2.5143113136291499      T T T 
  -3.1628549098968501       -4.6248803138732901        8.7735929489135707      T T T 
   8.1177577972412092        9.9000072479247994        12.481077194213871      T T T 
   13.524187088012701       0.80264967679976995       -3.2968115806579599      T T T 
   1.7451137304305999       -1.6163679361343399       -10.535960197448730      T T T 
   7.7602686882018999      -0.72589254379271995        2.3725376129150400      T T T 
  0.38866716623306002        5.4045982360839799       -3.4317226409912100      T T T 
   11.369683265686040        6.3053727149963397        4.8983535766601598      T T T 
   9.4690113067627006       -8.8344173431396502       -11.520565032958981      T T T 
  -4.4481887817382804        5.1759209632873500       -3.3655729293823202      T T T 
   11.491073608398439       -1.2430564165115401        4.3699622154235804      T T T 
  -3.7103078365325901        7.7602782249450701       -7.2274413108825701      T T T 
   2.8410456180572501        7.5390114784240696        1.8446985483169600      T T T 
   5.3792657852172896       -7.6891527175903303       -5.0807967185974103      T T T 
 -0.92737615108490001        11.729106903076170        2.9950146675109899      T T T 
   9.8184347152709996       -3.4070966243743901        7.0771222114562997      T T T 
  -5.7783536911010698        3.1862907409668000        8.0437345504760707      T T T 
   7.0676770210266104       -2.8814330101013201       -12.633250236511230      T T T 
  -11.957929611206049        8.6658344268798793        5.5836520195007298      T T T 
  -6.5416231155395499       -6.0089755058288601        12.368117332458500      T T T 
   9.3629827499389595       -3.3342957496643102        3.4810295104980500      T T T 
   8.2306842803955096       -7.5901260375976598        3.2165343761444101      T T T 
   1.2984189987182599       -12.381511688232420        8.9877719879150408      T T T 
  -11.829928398132321       -12.898851394653320       -6.1798324584960902      T T T 
   4.9701647758483896       -7.1098990440368697       -11.792808532714840      T T T 
  -7.0830812454223597        9.5786237716674805        5.3824419975280797      T T T 
   5.9969449043273899       -14.131401062011721        1.2579731941223100      T T T 
  -3.2146563529968302       -8.3340835571289098        5.7311077117919904      T T T 
  -3.3403830528259300       -2.3888566493988002       -8.3247776031494105      T T T 
   2.9537150859832799       -10.264057159423830        12.917087554931641      T T T 
  -11.569643020629879       -6.2809448242187500      -0.37914314866066001      T T T 
  -9.4854412078857404       -2.9305362701415998        5.3965125083923304      T T T 
   11.513609886169430       -6.0316057205200204        10.293110847473139      T T T 
 -0.19816178083420000        11.818117141723629       -6.9890427589416504      T T T 
  -9.0959196090698207       -8.8854198455810494       0.78270536661148005      T T T 
  0.47620779275893999       -5.1679058074951199        13.233253479003910      T T T 
  -3.9230854511261000       -7.8552165031433097       -12.747144699096680      T T T 
   10.599429130554199        2.5062289237976101       -8.3067111968994105      T T T 
  -1.4718506336212200       -9.5607032775878906       -1.5806216001510600      T T T 
  -3.9262146949768102       -11.589090347290041        1.5129121541976900      T T T 
   11.520658493041990      -0.78851306438446001        10.231685638427731      T T T 
  -3.2155749797821001        10.831774711608890        12.622492790222170      T T T 
   5.2608294486999503        12.677127838134769        6.2149934768676802      T T T 
  -7.2285065650939897        12.255301475524901        4.1133155822753897      T T T 
   3.0467188358306898        13.090499877929689       -1.4877916574478101      T T T 
   11.222855567932131        5.2007951736450204       -9.7569063305849996E-002 T T T 
  -7.9555454254150400        8.5592765808105504       -12.410821914672850      T T T 
  -4.2542438507080096       -3.4122056961059601        2.5299289226532000      T T T 
   12.605710983276371       -2.1382896900177002       -12.931698799133301      T T T 
  -12.312066078186040       -13.488471031188960       -3.2900080680847199      T T T 
   2.6127715110778800        4.7416281700134304        6.1825289726257298      T T T 
  -1.3636298179626500        2.3817911148071298       -1.0386067628860500      T T T 
   6.8582243919372603        2.6593489646911599       -1.5529247522354099      T T T 
   2.9565181732177699       0.46646299958228998       -2.8692605495452899      T T T 
   1.0407673120498699        9.3221712112426793        4.4188590049743697      T T T 
   4.1150393486022896       -13.588581085205080       -4.5823898315429696      T T T 
  -8.3964490890502894       -12.642335891723629        7.4548289179799998E-002 T T T 
   4.1984667778015101       -9.3475570678710902       -6.6882252693176296      T T T 
   10.767504692077640        10.420206069946291       -6.7258934974670401      T T T 
  -10.348798751831049        8.4933032989502006        2.0141224861145002      T T T 
   4.8930325508117702       -8.9641733169555700        2.4758443832397501      T T T 
   2.5582115650177002        10.044474601745611        10.514488220214840      T T T 
   5.0795483589172399        6.5500712394714400       -12.655826568603519      T T T 
   1.4214893579482999        3.0129315853118901       -4.8591694831848100      T T T 
   5.0176386833190900        2.0447096824646001        8.3840141296386701      T T T 
   13.627564430236820       0.48665234446526001        8.1314945220947301      T T T 
   10.663646697998050       -12.480535507202150       -9.0594863891601598      T T T 
  -5.8553318977356001       -8.2884359359741193       0.27450233697891002      T T T 
   7.0746135711669904        9.6798582077026403       -8.4546651840209996      T T T 
  -7.7242517471313503        9.2732887268066406        13.163282394409180      T T T 
  -9.9151945114135707        1.6236485242843599        2.8139569759368901      T T T 
  -5.7876610755920401        6.9076533317565900       -11.308793067932131      T T T 
   9.0114307403564506        4.2232227325439498        9.5614919662475604      T T T 
  -13.420097351074221       0.89702194929123003       -6.3880949020385698      T T T 
   10.579895973205570        7.8609542846679696        8.9357013702392596      T T T 
  -13.043728828430179        4.6298003196716300        1.2404279708862300      T T T 
  -9.4369993209838903      -0.92946124076842995        9.4937477111816406      T T T 
   1.1199659109115601        12.832825660705570       -9.4050683975219709      T T T 
   1.7328593730926500       -12.181228637695311       -12.126802444458010      T T T 
  -7.2126278877258301        10.154466629028320       -3.8020000457763699      T T T 
   2.3874425888061501       -9.9958200454711896        10.232157707214361      T T T 
  -6.9773955345153800        3.2761917114257799        13.628313064575201      T T T 
   7.7924318313598597        6.7513589859008798       -6.3752059936523402      T T T 
  -10.808412551879879      -0.52132791280746005       -1.4026627540588399      T T T 
   5.4471497535705602       -8.7356662750244105        8.1537303924560494      T T T 
   8.3111658096313494       -7.6312923431396502        7.6324100494384801      T T T 
   8.5521907806396502        1.1265627145767201        10.502919197082520      T T T 
  -3.9493491649627699       0.49120765924454002       -4.0560936927795401      T T T 
  -10.254553794860840        10.871534347534180        9.2526197433471697      T T T 
  -10.119853973388670       -6.5799922943115199        9.0479068756103498      T T T 
   3.7678930759429901        10.471767425537109        5.7526011466979998      T T T 
  -9.0586261749267596      -0.75290369987488004       -14.006538391113279      T T T 
  -12.432754516601561       -2.0665163993835400       -5.4262847900390598      T T T 
   12.094571113586429        9.6303157806396502       -12.788452148437500      T T T 
  -11.448351860046390        9.4053010940551793       -1.2212543487548799      T T T 
  -6.0682935714721697        1.7665295600891100        3.5161421298980700      T T T 
  -1.4304376840591400       -9.3033027648925799        12.246856689453120      T T T 
  -12.763630867004389        1.1529430150985700        6.1145920753479004      T T T 
  -5.3804883956909197        2.7971897125244101       -8.5556287765502894      T T T 
  -4.0650715827941903       -4.9492893218994096       -3.4240782260894802      T T T 
  -11.022833824157710       -9.0734958648681605        3.8108873367309601      T T T 
   5.2215876579284703        13.143991470336911        11.382787704467770      T T T 
  -8.4833221435546893       -5.1724476814270002        3.4091298580169700      T T T 
  -5.6655064225200003E-002   12.445919036865231        7.5156874656677202      T T T 
   11.415247917175289       -12.894567489624020       -12.267993927001950      T T T 
   8.0535831451415998       -1.7933320999145499       -3.1197614669799800      T T T 
   6.9555029869079599       -12.886194229125980       -13.408851623535160      T T T 
   5.8953814506530797        6.8650393486022896        6.1675958633422896      T T T 
  -2.5893867015838601        8.9997444152831996       -12.084935188293461      T T T 
  -11.151738166809080        4.2045984268188503        4.6759810447692898      T T T 
  -9.0700893402099592        5.9269165992736799       -2.5030348300933798      T T T 
 -0.14641445875167999       0.74885869026184004        12.456917762756349      T T T 
   10.090166091918951       -5.0071282386779803       -14.084247589111330      T T T 
  -5.5018362998962402       -10.224008560180661        12.697375297546390      T T T 
   4.1589031219482404        7.1316776275634801        11.081003189086911      T T T 
   6.2163496017456099        3.8726680278778098       -9.5923862457275408      T T T 
  -9.9787654876709002       -8.0027818679809606       -13.770280838012701      T T T 
  -2.4079058170318599        9.0896835327148402        2.9874711036682098      T T T 
  -3.4643754959106401       -3.0639128684997599        5.4939584732055700      T T T 
   8.6895713806152308       -1.6761313676834100        9.3650665283203107      T T T 
   12.179047584533690       -11.090459823608400        11.223455429077150      T T T 
   13.975712776184080       -1.4797626733779901        5.9090652465820304      T T T 
   4.9469733238220197       -5.0468780100299997E-003   3.3153221607208301      T T T 
   10.359683990478519       -7.6598868370056197        1.0034950971603400      T T T 
  -9.9526643753051793        1.7294329404830899        5.8725233078002903      T T T 
   2.0498261451721200       -7.9159870147705096        2.3073756694793701      T T T 
  -5.3493943214416504       -10.457884788513180       -11.361503601074221      T T T 
   9.4973735809326207       -9.5977716445922905       -8.5672388076782209      T T T 
   12.289609909057621        13.529805183410639       -10.095968246459959      T T T 
   11.915255546569821        3.2024989128112802       -2.3466973304748500      T T T 
   2.9743919372558598       -7.9692988395690900        6.3330550193786603      T T T 
   8.1149759292602504       -7.0918231010437003       -4.7254657745361301      T T T 
   5.2474875450134304        9.9790163040161097        11.738091468811040      T T T 
   10.841652870178221        9.7236614227294904        6.5614538192748997      T T T 
   2.7554228305816699        7.2534980773925799       -7.7217149734497097      T T T 
   11.108881950378420       -10.409610748291019       -14.012075424194339      T T T 
   7.6555161476135298       -9.8947753906250000       -13.951803207397459      T T T 
  -4.0097761154174796       -10.898944854736330       -7.9215087890625000      T T T 
 -0.52513980865479004        10.552357673645020       -13.707573890686040      T T T 
   9.6047658920288104        7.2455358505248997        11.660798072814940      T T T 
   10.702919006347660       -1.5714982748031601        1.4825142621994001      T T T 
  -11.422215461730961       0.98264306783676003       -9.8704013824462908      T T T 
  -1.2380008697509799        11.390275001525881       -4.1183018684387198      T T T 
  0.56175786256789995        9.5279264450073207        1.4026470184326201      T T T 
   5.8172063827514604        12.170417785644529       -6.9531230926513699      T T T 
   12.212557792663571      -0.22294746339321000        13.131420135498050      T T T 
   6.3316087722778303        3.2281720638275102        10.841976165771481      T T T 
  -2.9422564506530802       -13.752382278442379       -4.9070458412170401      T T T 
  -5.8907818794250497       -7.3830637931823704       -10.553783416748050      T T T 
  -14.024398803710939       -6.5594339370727504        9.0176506042480504      T T T 
  -11.898722648620611       -4.3566894531250000        10.112222671508791      T T T 
   12.251869201660160       -3.7942039966583301       -7.8654975891113299      T T T 
  -12.847102165222170        2.1331717967987101        3.1514308452606201      T T T 
   1.0086596012115501       -4.0759577751159703       -9.1599388122558594      T T T 
  0.31087124347687001        4.8203973770141602       -10.253535270690920      T T T 
  -4.3618855476379403       -1.6335383653640700       -11.251318931579590      T T T 
   3.2220861911773699       -13.045193672180179       0.74719017744063998      T T T 
  -13.004500389099119       -7.0238809585571298       -12.650366783142090      T T T 
   1.5639815330505400       -2.3580107688903800       -3.1025254726409899      T T T 
   4.8455486297607404       -1.6841049194335900        13.501907348632811      T T T 
  0.40943995118141002       -3.6063361167907702       -12.431712150573730      T T T 
   1.4750224351882899        7.4144935607910201        9.6800746917724592      T T T 
   6.8490548133850098        6.4233584403991699        9.7399911880493200      T T T 
  -12.639518737792971       -4.5173196792602504       -7.4550328254699698      T T T 
  -5.7752408981323198       -5.9941115379333496        2.2220222949981698      T T T 
  -6.1857104301452601        13.022060394287109       -4.2692842483520499      T T T 
  -13.864684104919430       -3.6274402141571001       -11.118151664733890      T T T 
  -11.497822761535639      -0.71591413021088002        3.9853322505950901      T T T 
   1.4362241029739400        3.0268149375915501       -1.8408608436584499      T T T 
  -6.5618119239807102       -8.1304254531860405       -13.781193733215330      T T T 
  -7.9403572082519496        12.791131973266600       -1.1897131204605100      T T T 
  -10.066822052001950       -2.3221039772033700        11.982940673828120      T T T 
  -5.1998023986816397        3.0126121044158900       -5.3329648971557599      T T T 
  -11.018332481384279        6.4918074607849103      -0.22976736724377000      T T T 
  -10.329714775085449       0.66890013217926003       -6.6849379539489702      T T T 
  -10.415047645568849        9.4743909835815394       -10.728863716125490      T T T 
  -1.3976972103118901        13.271379470825201        12.682609558105471      T T T 
  -8.4579029083252006       -12.055650711059570       -10.738392829895020      T T T 
   4.0740852355956996       -7.2345897555349994E-002 -0.16852444410324000      T T T 
   5.9250087738037100        8.7009763717651403       -2.5768134593963601      T T T 
   1.5429314374923699        1.5452510118484499        3.0777513980865501      T T T 
  -4.9555025100707999       -5.0660095214843803       -13.407645225524901      T T T 
   2.8795726299285902        7.1802821159362802       -10.905139923095700      T T T 
  -13.908677101135250       -12.655228614807131       -8.4202489852905291      T T T 
   3.6949155330657999        4.1447944641113299       -11.133991241455080      T T T 
  -3.3449213504791300       -13.528227806091310       -11.865900039672850      T T T 
   9.7253694534301793       -7.4521932601928702        12.391584396362299      T T T 
   3.6197669506072998        10.190759658813480        2.7318339347839400      T T T 
   8.4274740219116193       -5.4636101722717303        5.3472361564636204      T T T 
  -13.505315780639650        3.3098666667938201       -4.4449777603149396      T T T 
   12.666311264038089        1.5014981031417800        5.2920994758606001      T T T 
   9.9823598861694300        12.253006935119631        4.3656673431396502      T T T 
  -6.5886745452880904       -1.0290951728820801        10.607218742370611      T T T 
   3.1130704879760702        13.320137977600099       -11.723072052001950      T T T 
  -3.1663067340850799       -10.496425628662109       -13.788514137268070      T T T 
  -10.660861968994141        2.2635941505432098       -3.7319704890250001E-002 T T T 
  -8.7874155044555700        5.9282960891723597       -11.180573463439940      T T T 
  -13.862469673156740       -1.5907063484191899        10.250180244445801      T T T 
  -2.5943186283111599       -2.1040394306182901       -4.5195546150207502      T T T 
  -13.268609046936040       -2.6432678699493399        13.483287811279300      T T T 
  -8.7739896774291992       -6.3387184143066397       -10.874879837036129      T T T 
   7.0177326202392596        5.3415260314941397       -3.3925213813781698      T T T 
  -13.630717277526861        6.7367835044860804       -5.9300088882446298      T T T 
   6.8873929977417001       -7.2115869522094700        10.396710395812990      T T T 
   11.951515197753910        3.7192831039428702       -10.917625427246090      T T T 
  0.87570291757583996        5.3078060150146502        12.268116950988770      T T T 
   1.9278721809387200       -12.478393554687500       -9.2238101959228498      T T T 
   8.1956405639648402        9.5741386413574201       -5.5007681846618697      T T T 
  -12.651681900024411        12.588403701782230       -11.061606407165529      T T T 
   8.4684467315673793        8.1618900299072301       0.33973932266235002      T T T 
   9.7758569717407209       -12.970129013061520        13.443058967590330      T T T 
  -11.982469558715820        5.9781970977783203        6.9257206916809100      T T T 
   5.1968212127685502       -3.5171904563903800        9.6219882965087908      T T T 
  -9.1649885177612305       -12.558099746704100       -7.5763826370239302      T T T 
  -4.6886882781982404       -3.9364471435546902        11.311441421508791      T T T 
  -10.203900337219240        10.867209434509279        12.360931396484380      T T T 
   6.9440383911132804       -12.657235145568849        11.813150405883791      T T T 
  -12.535389900207520        3.4649770259857200       -7.7910971641540501      T T T 
  -13.659893035888670        10.092507362365721       -2.9977335929870601      T T T 
  -2.0764379501342800        6.5437641143798801        9.9168586730956996      T T T 
   4.8217825889587402       -7.8604226112365696        13.474949836730961      T T T 
  -2.4225325584411599        7.9896306991577104        13.226398468017580      T T T 
  -2.5571000576019300       -7.3591628074645996       -4.4847636222839400      T T T 
  -6.5285806655883798       -12.963037490844730        11.969950675964361      T T T 
   9.6086206436157209        8.0489482879638707       -8.4247226715087908      T T T 
   3.6841387748718302       -9.8794279098510707       -12.357416152954100      T T T 
   12.645055770874020       -10.143375396728519        2.8011057525869999E-002 T T T 
  -11.302015304565430       -4.9019761085510298       -3.1525716781616202      T T T 
  -3.2022111415863002       -7.6775803565979004        8.7904958724975604      T T T 
   2.9518122673034699       -2.9288806915283199        2.9430584907531698      T T T 
   4.8728022575378400       -10.631929397583010       -3.9931936264038099      T T T 
  -1.5484879016876201        13.993026733398439       -8.6891164779663104      T T T 
  -11.704733848571779       -10.310494422912599       -7.7027168273925799      T T T 
  -8.1483602523803693        11.958218574523929        7.0720286369323704      T T T 
   12.143465995788571        13.912029266357420        2.4234268665313698      T T T 
  -11.615385055541990       -8.1536369323730504        11.206410408020020      T T T 
   13.436160087585449       -7.4517383575439498        12.169565200805661      T T T 
   12.988293647766110       -1.2746096849441499       -5.4859671592712402      T T T 
  -4.6684212684631303       -4.5494608879089400       -6.4557337760925302      T T T 
 -0.59246349334716997       -4.8383164405822798      -0.11254484951495999      T T T 
  -2.1501290798187300       -3.9242706298828098        13.299430847167971      T T T 
  -3.4888470172882098       -14.045761108398439       -1.4449366331100499      T T T 
  -9.0801410675048793      -0.61059600114821999        1.0069233179092401      T T T 
  -1.5867749452590900       -4.4631986618042001       -6.9581146240234402      T T T 
   13.215771675109860        1.1146848201751700       -8.9582099914550799      T T T 
  -3.7262444496154798       0.49660956859589001       -7.3049349784851101      T T T 
  -7.4008293151855504       -5.1712231636047399       -5.0822639465331996      T T T 
   7.3110909461975098       -1.4376673698425300       -9.9620666503906197      T T T 
  -11.171847343444821       -10.026842117309570       -11.087318420410160      T T T 
 -0.32912284135817998       -6.9484291076660201       -7.8930096626281703      T T T 
   8.8635501861572301       -11.700252532958981       -11.363346099853519      T T T 
   3.7162086963653600       -11.047519683837891        7.7244415283203098      T T T 
  -1.2063490152359000       -2.3351113796234100        9.0002994537353498      T T T 
   1.2350755929946899       -7.9347281455993697        12.095092773437500      T T T 
   11.127841949462891        10.074602127075201        12.675352096557621      T T T 
  -10.485999107360840       -13.675073623657230       -13.042337417602541      T T T 
  -6.8245782852172896       -10.739715576171880        1.8780692815780600      T T T 
   10.152927398681641       -6.6898436546325701       -7.0635533332824698      T T T 
   5.0873866081237802        1.1885679960250899       -9.5538587570190394      T T T 
 -0.98922151327133001       -4.7381954193115199       -3.5818319320678702      T T T 
   12.146309852600099        3.3099336624145499        13.937668800354000      T T T 
  -12.223737716674799       -10.966532707214361        8.2792291641235405      T T T 
  -9.3397436141967791        8.7008924484252894        7.2652578353881800      T T T 
   5.2189841270446804        8.6771936416625994       -6.2824234962463397      T T T 
   2.9656319618225102       -6.6674790382385298       -6.4005236625671396      T T T 
  -7.7345519065856898       -12.689716339111330        8.4439697265625000      T T T 
  -5.6875238418579102        5.8146505355834996       -8.4570636749267596      T T T 